Route #1: 26 58 10 31 38
Route #2: 53 11 59 14 35
Route #3: 7 8 19 54 13 27 52
Route #4: 5 47 36 37 60 20 15 57
Route #5: 46 34 45 29 48 4
Route #6: 30 21 61 28 2
Route #7: 6 33 62 1 43 63 16
Route #8: 22 64 42 41 56 23 49 24
Route #9: 50 18 55 25 9 39 12
Route #10: 51 3 44 32 40 17
Cost 830